10010.25,60.76,75.37
12295.85,49.47,61.36
10793.45,56.35,69.9
11841.82,51.36,63.71
10080.31,60.34,74.85
11125.51,54.67,67.82
11354.44,53.57,66.45
10777.57,56.43,70.01
11450.34,53.12,65.89
11190.53,54.35,67.42
10020.0,60.7,75.3
10574.59,57.52,71.35
10573.91,57.52,71.35
10614.57,57.3,71.08
11915.14,51.05,63.32
11998.78,50.69,62.88
10979.32,55.4,68.72
11917.28,51.04,63.31
10473.0,58.07,72.04
10583.59,57.47,71.29
